1 10 30
4890
  4.8  0.37  49.2 2504.0   0.0
 0.25 1502.4  83.2
 0.23 1404.9  77.8
 0.33 2011.6 111.4
 0.28 1675.8  92.8
 0.32 1952.2 108.1
 0.45 2703.4 149.7
 0.18 1082.1  59.9
 0.40 2378.8 131.7
 0.26 1572.8  87.1
 0.30 1832.5 101.5
  983
 1430
  575
  727
  967
  715
  817
  687
 1385
 1408
  902
 1187
 1211
  724
  959
  996
 1483
  594
 1456
 1180
  842
  922
 1292
 1322
 1037
  933
  872
 1047
  811
 1011
